15161
1 1 0 1 0 1 0 1 0 1 
7 1 5 7 5 3 5 1 7 5 0 0 7 1 3 5 0 5 3 3 3 7 1 0 0 5 1 7 0 3 7 7 3 5 3 7 3 3 7 0 7 3 0 7 5 7 7 9 0 7 3 5 3 3 0 3 7 3 3 7 5 7 7 3 3 3 9 7 3 7 3 0 0 0 5 3 3 3 7 7 0 3 5 9 7 1 5 7 9 7 0 1 5 9 3 9 3 0 0 7 
